0 104 737 175 47
47 209 561 360 312
220 570 253 0 672
122 175 823 442 391
744 269 806 32 823
496 0 189 631 593
439 365 0 549 529
806 869 132 328 442
253 601 337 697 141
419 503 629 599 197
337 419 442 500 228
593 748 111 61 631
611 313 699 758 212
166 686 487 271 104
663 442 751 812 334
